qbf_easy_train/easy_4321_UNSAT.qdimacs
p cnf 44 134
a 33 2 28 0
e 1 3 4 5 6 7 8 9 10 11 12 13 14 15 16 17 18 19 20 21 22 23 24 25 26 27 29 30 31 32 34 35 36 37 38 39 40 41 42 43 44 0
3 -1 0
3 2 0
1 -2 -3 0
-7 5 0
-7 -6 0
-5 6 7 0
7 1 -8 0
-7 -1 -8 0
7 -1 8 0
-7 1 8 0
9 5 0
9 1 0
-5 -1 -9 0
-10 8 0
-10 -9 0
-8 9 10 0
-11 -4 0
-11 10 0
4 -10 11 0
-12 -1 0
-12 -7 0
1 7 12 0
13 -11 0
13 -12 0
11 12 -13 0
-14 -3 0
-14 13 0
3 -13 14 0
-15 7 0
-15 12 0
-7 -12 15 0
-17 16 0
-17 -12 0
-16 12 17 0
-18 -17 0
-18 -6 0
17 6 18 0
15 18 -19 0
-15 -18 -19 0
15 -18 19 0
-15 18 19 0
-20 14 0
-20 -19 0
-14 19 20 0
-8 -21 -22 0
8 21 -22 0
-8 21 22 0
8 -21 22 0
-2 8 -23 0
2 -8 -23 0
-2 -8 23 0
2 8 23 0
24 -9 0
24 23 0
9 -23 -24 0
25 22 0
25 -24 0
-22 24 -25 0
26 20 0
26 -25 0
-20 25 -26 0
12 2 -27 0
-12 -2 -27 0
12 -2 27 0
-12 2 27 0
-9 1 -28 0
9 -1 -28 0
-9 -1 28 0
9 1 28 0
-1 15 -29 0
1 -15 -29 0
-1 -15 29 0
1 15 29 0
29 2 -30 0
-29 -2 -30 0
29 -2 30 0
-29 2 30 0
31 -29 0
31 30 0
29 -30 -31 0
12 -10 -32 0
-12 10 -32 0
12 10 32 0
-12 -10 32 0
-33 31 0
-33 32 0
-31 -32 33 0
34 -4 0
34 -30 0
4 30 -34 0
-35 17 0
-35 29 0
-17 -29 35 0
35 -36 -37 0
-35 36 -37 0
35 36 37 0
-35 -36 37 0
-38 34 0
-38 -37 0
-34 37 38 0
-33 -38 -39 0
33 38 -39 0
-33 38 39 0
33 -38 39 0
40 28 0
40 -39 0
-28 39 -40 0
41 27 0
41 40 0
-27 -40 -41 0
-23 -5 -42 0
23 5 -42 0
-23 5 42 0
23 -5 42 0
-41 42 -43 0
41 -42 -43 0
-41 -42 43 0
41 42 43 0
44 26 0
44 -43 0
-26 43 -44 0
36 1 -39 8 -30 0
-19 4 -30 42 -22 35 0
-10 28 -18 42 -13 35 0
-30 -25 -8 0
15 9 24 -34 -5 18 0
-12 37 -29 -9 -7 -18 -17 -15 0
11 -18 25 -30 -7 10 0
15 42 41 29 0
6 42 5 -28 31 29 43 16 0
-19 -24 32 -13 -5 -14 -20 0
-9 -18 -14 0
-23 -10 20 -24 17 -15 -29 0
44 0
