sat_easy_train/easy_4321_UNSAT.dimacs
p cnf 132 452
-4 2 0
-4 3 0
-2 -3 4 0
-1 4 -5 0
1 -4 -5 0
-1 -4 5 0
1 4 5 0
-7 -6 0
-7 -2 0
6 2 7 0
-8 5 0
-8 -7 0
-5 7 8 0
10 -9 0
10 3 0
9 -3 -10 0
11 -8 0
11 10 0
8 -10 -11 0
-13 -12 0
-13 2 0
12 -2 13 0
11 -13 -14 0
-11 13 -14 0
11 13 14 0
-11 -13 14 0
-18 -17 0
-18 9 0
17 -9 18 0
-16 18 -19 0
16 -18 -19 0
-16 -18 19 0
16 18 19 0
-20 -15 0
-20 19 0
15 -19 20 0
-22 -20 0
-22 -21 0
20 21 22 0
23 17 -24 0
-23 -17 -24 0
23 -17 24 0
-23 17 24 0
-24 -16 -25 0
24 16 -25 0
-24 16 25 0
24 -16 25 0
26 -25 0
26 -6 0
25 6 -26 0
27 -20 0
27 24 0
20 -24 -27 0
28 -26 0
28 27 0
26 -27 -28 0
29 -5 0
29 5 0
-30 28 0
-30 -29 0
-28 29 30 0
-31 -22 0
-31 30 0
22 -30 31 0
-33 -19 0
-33 32 0
19 -32 33 0
-35 -16 0
-35 -34 0
16 34 35 0
-37 35 0
-37 -36 0
-35 36 37 0
21 -37 -38 0
-21 37 -38 0
21 37 38 0
-21 -37 38 0
-39 -23 0
-39 -38 0
23 38 39 0
-40 -38 0
-40 39 0
38 -39 40 0
41 33 0
41 40 0
-33 -40 -41 0
-42 31 0
-42 -41 0
-31 41 42 0
43 14 0
43 -42 0
-14 42 -43 0
-44 -2 0
-44 -18 0
2 18 44 0
45 -21 0
45 44 0
21 -44 -45 0
-18 -32 -46 0
18 32 -46 0
-18 32 46 0
18 -32 46 0
45 46 -47 0
-45 -46 -47 0
45 -46 47 0
-45 46 47 0
-25 -30 -48 0
25 30 -48 0
-25 30 48 0
25 -30 48 0
21 15 -49 0
-21 -15 -49 0
21 -15 49 0
-21 15 49 0
-50 -48 0
-50 49 0
48 -49 50 0
51 47 0
51 50 0
-47 -50 -51 0
-52 -26 0
-52 -39 0
26 39 52 0
-25 -53 -54 0
25 53 -54 0
-25 53 54 0
25 -53 54 0
55 16 0
55 6 0
-16 -6 -55 0
-16 25 -56 0
16 -25 -56 0
-16 -25 56 0
16 25 56 0
56 15 -57 0
-56 -15 -57 0
56 -15 57 0
-56 15 57 0
-55 -57 -58 0
55 57 -58 0
-55 57 58 0
55 -57 58 0
-53 55 -59 0
53 -55 -59 0
-53 -55 59 0
53 55 59 0
-58 -59 -60 0
58 59 -60 0
-58 59 60 0
58 -59 60 0
-61 29 0
-61 60 0
-29 -60 61 0
-54 61 -62 0
54 -61 -62 0
-54 -61 62 0
54 61 62 0
-63 -52 0
-63 62 0
52 -62 63 0
46 45 -64 0
-46 -45 -64 0
46 -45 64 0
-46 45 64 0
65 -57 0
65 17 0
57 -17 -65 0
-66 -53 0
-66 65 0
53 -65 66 0
-32 66 -67 0
32 -66 -67 0
-32 -66 67 0
32 66 67 0
-64 67 -68 0
64 -67 -68 0
-64 -67 68 0
64 67 68 0
-63 68 -69 0
63 -68 -69 0
-63 -68 69 0
63 68 69 0
-70 -6 0
-70 -66 0
6 66 70 0
-16 -15 -71 0
16 15 -71 0
-16 15 71 0
16 -15 71 0
-70 71 -72 0
70 -71 -72 0
-70 -71 72 0
70 71 72 0
-73 -65 0
-73 -66 0
65 66 73 0
-34 2 -74 0
34 -2 -74 0
-34 -2 74 0
34 2 74 0
75 -1 0
75 -74 0
1 74 -75 0
76 -57 0
76 7 0
57 -7 -76 0
78 -39 0
78 -77 0
39 77 -78 0
-59 -35 -79 0
59 35 -79 0
-59 35 79 0
59 -35 79 0
-78 -79 -80 0
78 79 -80 0
-78 79 80 0
78 -79 80 0
-76 80 -81 0
76 -80 -81 0
-76 -80 81 0
76 80 81 0
-82 75 0
-82 -81 0
-75 81 82 0
5 16 -83 0
-5 -16 -83 0
5 -16 83 0
-5 16 83 0
84 -82 0
84 83 0
82 -83 -84 0
-73 84 -85 0
73 -84 -85 0
-73 -84 85 0
73 84 85 0
-86 72 0
-86 85 0
-72 -85 86 0
-87 -69 0
-87 -86 0
69 86 87 0
30 -74 -88 0
-30 74 -88 0
30 74 88 0
-30 -74 88 0
-56 -25 -89 0
56 25 -89 0
-56 25 89 0
56 -25 89 0
90 88 0
90 89 0
-88 -89 -90 0
91 -38 0
91 -36 0
38 36 -91 0
-92 25 0
-92 36 0
-25 -36 92 0
-93 34 0
-93 25 0
-34 -25 93 0
92 93 -94 0
-92 -93 -94 0
92 -93 94 0
-92 93 94 0
-32 59 -95 0
32 -59 -95 0
-32 -59 95 0
32 59 95 0
-94 95 -96 0
94 -95 -96 0
-94 -95 96 0
94 95 96 0
-91 -96 -97 0
91 96 -97 0
-91 96 97 0
91 -96 97 0
-98 -90 0
-98 97 0
90 -97 98 0
-99 -87 0
-99 98 0
87 -98 99 0
51 99 -100 0
-51 -99 -100 0
51 -99 100 0
-51 99 100 0
-43 100 -101 0
43 -100 -101 0
-43 -100 101 0
43 100 101 0
102 -25 0
102 -46 0
25 46 -102 0
20 34 -103 0
-20 -34 -103 0
20 -34 103 0
-20 34 103 0
104 -15 0
104 -56 0
15 56 -104 0
-105 -17 0
-105 -39 0
17 39 105 0
106 105 0
106 28 0
-105 -28 -106 0
-107 -104 0
-107 106 0
104 -106 107 0
33 22 -108 0
-33 -22 -108 0
33 -22 108 0
-33 22 108 0
-109 107 0
-109 -108 0
-107 108 109 0
-110 -58 0
-110 -4 0
58 4 110 0
-111 29 0
-111 -9 0
-29 9 111 0
-112 111 0
-112 -21 0
-111 21 112 0
-113 25 0
-113 -112 0
-25 112 113 0
-114 110 0
-114 -113 0
-110 113 114 0
-115 -29 0
-115 -55 0
29 55 115 0
116 115 0
116 115 0
-115 -116 0
-114 116 -117 0
114 -116 -117 0
-114 -116 117 0
114 116 117 0
-109 -117 -118 0
109 117 -118 0
-109 117 118 0
109 -117 118 0
119 -103 0
119 -118 0
103 118 -119 0
-120 102 0
-120 119 0
-102 -119 120 0
-15 -34 -121 0
15 34 -121 0
-15 34 121 0
15 -34 121 0
-122 23 0
-122 -24 0
-23 24 122 0
123 105 0
123 122 0
-105 -122 -123 0
-124 37 0
-124 123 0
-37 -123 124 0
121 -124 -125 0
-121 124 -125 0
121 124 125 0
-121 -124 125 0
126 16 0
126 40 0
-16 -40 -126 0
-126 -29 -127 0
126 29 -127 0
-126 29 127 0
126 -29 127 0
-128 125 0
-128 -127 0
-125 127 128 0
129 120 0
129 128 0
-120 -128 -129 0
101 -129 -130 0
-101 129 -130 0
101 129 130 0
-101 -129 130 0
131 -1 0
131 21 0
1 -21 -131 0
-132 130 0
-132 131 0
-130 -131 132 0
129 -6 13 -38 -85 0
-83 19 127 0
96 128 0
55 125 0
110 12 108 0
5 81 0
74 -108 0
-28 51 3 45 90 0
114 -10 -58 -122 -87 0
9 12 0
27 -111 -86 -87 -38 56 0
131 107 0
-126 -64 0
54 110 0
-117 124 102 0
-72 46 0
58 -114 -90 -27 -22 -20 0
89 -126 0
48 45 -94 80 96 50 0
67 119 -10 14 0
-74 16 2 26 0
10 75 -44 0
-117 -43 0
80 -53 0
77 42 -33 0
115 -59 -71 0
-37 -98 45 124 48 12 0
17 -32 -1 -66 -92 86 0
32 79 7 -35 -18 2 0
-53 97 45 71 0
79 80 51 -66 -75 0
16 -129 51 37 0
-67 -100 -110 16 97 0
17 -25 0
109 23 0
83 -71 -84 6 96 0
21 48 0
66 -120 0
-121 43 0
2 -22 43 -31 18 0
63 -61 100 0
-18 51 -58 113 0
49 103 -73 -31 126 0
44 16 -116 -104 87 -67 0
75 -39 0
-12 -45 23 0
109 -66 0
31 62 0
-27 81 86 0
-91 -80 0
-38 -44 -18 -65 -42 -86 0
60 -1 100 -126 86 0
-96 -97 -34 120 0
-80 -37 -6 61 122 0
26 92 -76 114 0
118 115 70 -53 0
-60 56 128 3 118 51 0
-8 10 -51 0
131 82 0
132 0
